SCIP Status        : solving was interrupted [time limit reached]
Total Time         :    3600.00
  solving          :    3600.00
  presolving       :       0.23 (included in solving)
  reading          :       0.00
  copying          :       0.78 (35 #copies) (minimal 0.00, maximal 0.03, average 0.02)
Original Problem   :
  Problem name     : bbbenchmark/g05_60.9.cut
  Variables        : 61 (60 binary, 0 integer, 0 implicit integer, 1 continuous)
  Constraints      : 1 initial, 1 maximal
  Objective        : minimize, 1 non-zeros (abs.min = 1, abs.max = 1)
Presolved Problem  :
  Problem name     : t_bbbenchmark/g05_60.9.cut
  Variables        : 946 (60 binary, 0 integer, 885 implicit integer, 1 continuous)
  Constraints      : 886 initial, 5937 maximal
  Objective        : minimize, 1 non-zeros (abs.min = 1, abs.max = 1)
  Nonzeros         : 3601 constraint, 122 clique table
Presolvers         :   ExecTime  SetupTime  Calls  FixedVars   AggrVars   ChgTypes  ChgBounds   AddHoles    DelCons    AddCons   ChgSides   ChgCoefs
  boundshift       :       0.00       0.00      0          0          0          0          0          0          0          0          0          0
  convertinttobin  :       0.00       0.00      0          0          0          0          0          0          0          0          0          0
  domcol           :       0.00       0.00      1          0          0          0          0          0          0          0          0          0
  dualagg          :       0.00       0.00      0          0          0          0          0          0          0          0          0          0
  dualcomp         :       0.00       0.00      1          0          0          0          0          0          0          0          0          0
  dualinfer        :       0.00       0.00      0          0          0          0          0          0          0          0          0          0
  dualsparsify     :       0.00       0.00      1          0          0          0          0          0          0          0          0          0
  gateextraction   :       0.00       0.00      0          0          0          0          0          0          0          0          0          0
  implics          :       0.00       0.00      2          0          0          0          0          0          0          0          0          0
  inttobinary      :       0.00       0.00      0          0          0          0          0          0          0          0          0          0
  qpkktref         :       0.00       0.00      0          0          0          0          0          0          0          0          0          0
  redvub           :       0.00       0.00      0          0          0          0          0          0          0          0          0          0
  sparsify         :       0.00       0.00      1          0          0          0          0          0          0          0          0          0
  stuffing         :       0.00       0.00      0          0          0          0          0          0          0          0          0          0
  trivial          :       0.00       0.00      4          0          0          0          0          0          0          0          0          0
  tworowbnd        :       0.00       0.00      0          0          0          0          0          0          0          0          0          0
  dualfix          :       0.00       0.00      4          0          0          0          0          0          0          0          0          0
  genvbounds       :       0.00       0.00      0          0          0          0          0          0          0          0          0          0
  probing          :       0.12       0.00      1          0          0          0          0          0          0          0          0          0
  pseudoobj        :       0.00       0.00      1          0          0          0          1          0          0          0          0          0
  symmetry         :       0.00       0.00      0          0          0          0          0          0          0          0          0          0
  vbounds          :       0.00       0.00      1          0          0          0          0          0          0          0          0          0
  and              :       0.02       0.00      2          0          0          0          0          0          0          0          0          0
  linear           :       0.00       0.00      2          0          0          0          0          0          0          0          0          0
  logicor          :       0.00       0.00      0          0          0          0          0          0          0          0          0          0
  nonlinear        :       0.08       0.01      5          0          0          0          1          0          0        885          0          0
  benders          :       0.00       0.00      0          0          0          0          0          0          0          0          0          0
  components       :       0.00       0.00      1          0          0          0          0          0          0          0          0          0
  root node        :          -          -      -          0          -          -         42          -          -          -          -          -
Constraints        :     Number  MaxNumber  #Separate #Propagate    #EnfoLP    #EnfoRelax  #EnfoPS    #Check   #ResProp    Cutoffs    DomReds       Cuts    Applied      Conss   Children
  benderslp        :          0          0          0          0      70763          0          0       9597          0          0          0          0          0          0          0
  integral         :          0          0          0          0      70763          0          0       9597          0          0      10278          0          0       4766     136964
  and              :        885        885      80405     485131         14          0          0         34     114718        109    2544326       1173       1101          0          0
  linear           :          1+         3        261     485022         14          0          0         32          0          0          0          0          0          0          0
  logicor          :          0+      5051          0     128147          0          0          0          0       1966        892        200          0          0          0          0
  benders          :          0          0          0          0         14          0          0         35          0          0          0          0          0          0          0
  countsols        :          0          0          0          0         14          0          0         35          0          0          0          0          0          0          0
  components       :          0          0          0          0          0          0          0          0          0          0          0          0          0          0          0
Constraint Timings :  TotalTime  SetupTime   Separate  Propagate     EnfoLP     EnfoPS     EnfoRelax   Check    ResProp    SB-Prop
  benderslp        :       0.06       0.00       0.00       0.00       0.06       0.00       0.00       0.00       0.00       0.00
  integral         :      59.21       0.00       0.00       0.00      59.19       0.00       0.00       0.02       0.00       0.00
  and              :      47.69       0.00      27.87      19.05       0.00       0.00       0.00       0.01       0.13       0.63
  linear           :       0.47       0.00       0.01       0.43       0.00       0.00       0.00       0.00       0.00       0.03
  logicor          :      10.88       0.00       0.00      10.78       0.00       0.00       0.00       0.00       0.01       0.09
  benders          :       0.00       0.00       0.00       0.00       0.00       0.00       0.00       0.00       0.00       0.00
  countsols        :       0.00       0.00       0.00       0.00       0.00       0.00       0.00       0.00       0.00       0.00
  components       :       0.15       0.00       0.00       0.15       0.00       0.00       0.00       0.00       0.00       0.00
Propagators        : #Propagate   #ResProp    Cutoffs    DomReds
  dualfix          :          4          0          0          0
  genvbounds       :          0          0          0          0
  nlobbt           :          0          0          0          0
  obbt             :          0          0          0          0
  probing          :          0          0          0          0
  pseudoobj        :     362457          0          0         42
  redcost          :     174944          0          0     409623
  rootredcost      :         23          0          0          0
  symmetry         :          0          0          0          0
  vbounds          :      45511          0          0          0
Propagator Timings :  TotalTime  SetupTime   Presolve  Propagate    ResProp    SB-Prop
  dualfix          :       0.00       0.00       0.00       0.00       0.00       0.00
  genvbounds       :       0.38       0.00       0.00       0.38       0.00       0.00
  nlobbt           :       0.00       0.00       0.00       0.00       0.00       0.00
  obbt             :       0.00       0.00       0.00       0.00       0.00       0.00
  probing          :       0.12       0.00       0.12       0.00       0.00       0.00
  pseudoobj        :       0.69       0.00       0.00       0.69       0.00       0.00
  redcost          :       6.38       0.00       0.00       6.38       0.00       0.00
  rootredcost      :       0.45       0.00       0.00       0.43       0.00       0.02
  symmetry         :       0.16       0.00       0.00       0.16       0.00       0.00
  vbounds          :       0.34       0.00       0.00       0.34       0.00       0.00
Conflict Analysis  :       Time      Calls    Success    DomReds  Conflicts   Literals    Reconvs ReconvLits   Dualrays   Nonzeros   LP Iters   (pool size: [10000,10000])
  propagation      :       0.01       1001        538          -        628       26.3          0        0.0          -          -          -
  infeasible LP    :       0.00          0          0          -          0        0.0          0        0.0          2       48.0          0
  bound exceed. LP :      18.50      11291       8615          -      54039       34.2         25       22.9          0        0.0      63818
  strong branching :       0.00          0          0          -          0        0.0          0        0.0          -          -          0
  pseudo solution  :       0.00          0          0          -          0        0.0          0        0.0          -          -          -
  applied globally :       0.22          -          -          0      22660       33.8          -          -          2          -          -
  applied locally  :          -          -          -          0          0        0.0          -          -          0          -          -
Separators         :   ExecTime  SetupTime      Calls  RootCalls    Cutoffs    DomReds  FoundCuts ViaPoolAdd  DirectAdd    Applied ViaPoolApp  DirectApp      Conss
  cut pool         :       2.09          -      17651        292          -          -      22892     322983          -          -          -          -          -    (maximal pool size:       1440)
  aggregation      :     370.21       0.00       4435        261          0          0         12         13          0         11         11          0          0
  > cmir           :          -          -          -          -          -          -          -         13          0         11         11          0          -
  > flowcover      :          -          -          -          -          -          -          -          0          0          0          0          0          -
  > knapsackcover  :          -          -          -          -          -          -          -          0          0          0          0          0          -
  cgmip            :       0.00       0.00          0          0          0          0          0          0          0          0          0          0          0
  clique           :       0.03       0.00        261        261          0          0          0          0          0          0          0          0          0
  closecuts        :       0.00       0.00          0          0          0          0          0          0          0          0          0          0          0
  convexproj       :       0.00       0.00          0          0          0          0          0          0          0          0          0          0          0
  disjunctive      :       0.00       0.00          0          0          0          0          0          0          0          0          0          0          0
  eccuts           :       0.00       0.00          0          0          0          0          0          0          0          0          0          0          0
  gauge            :       0.00       0.00          0          0          0          0          0          0          0          0          0          0          0
  gomory           :       0.00       0.00          0          0          0          0          0          0          0          0          0          0          0
  > gomorymi       :          -          -          -          -          -          -          -          0          0          0          0          0          -
  > strongcg       :          -          -          -          -          -          -          -          0          0          0          0          0          -
  impliedbounds    :       0.16       0.00       4435        261          0          0         11          0          0          0          0          0          0
  interlattice     :       0.37       0.00        160        160          0          0        160          0        160        159          0        159          0
  interminor       :       0.00       0.00          0          0          0          0          0          0          0          0          0          0          0
  intersub         :       0.68       0.00         40         40          0          0         40          0         40         40          0         40          0
  intobj           :       0.00       0.00          0          0          0          0          0          0          0          0          0          0          0
  mcf              :       0.01       0.00          1          1          0          0          0          0          0          0          0          0          0
  minor            :       0.01       0.00          0          0          0          0          0          0          0          0          0          0          0
  mixing           :       0.00       0.00       4435        261          0          0          0          0          0          0          0          0          0
  oddcycle         :       0.00       0.00          0          0          0          0          0          0          0          0          0          0          0
  rapidlearning    :       0.00       0.00          0          0          0          0          0          0          0          0          0          0          0
  rlt              :       0.00       0.00         10         10          0          0          0          0          0          0          0          0          0
  zerohalf         :      18.02       0.00       3591         20          0          0      22869     322970          0      66296      66296          0          0
Cutselectors       :   ExecTime  SetupTime      Calls  RootCalls   Selected     Forced   Filtered  RootSelec   RootForc   RootFilt 
  hybrid           :       0.22       0.00      11049        259      67607          0     256749        409          0         16
Pricers            :   ExecTime  SetupTime      Calls       Vars
  problem variables:       0.00          -          0          0
Branching Rules    :   ExecTime  SetupTime   BranchLP  BranchExt   BranchPS    Cutoffs    DomReds       Cuts      Conss   Children
  allfullstrong    :       0.00       0.00          0          0          0          0          0          0          0          0
  cloud            :       0.00       0.00          0          0          0          0          0          0          0          0
  distribution     :       0.00       0.00          0          0          0          0          0          0          0          0
  fullstrong       :       0.00       0.00          0          0          0          0          0          0          0          0
  inference        :       0.00       0.00          0          0          0          0          0          0          0          0
  leastinf         :       0.00       0.00          0          0          0          0          0          0          0          0
  lookahead        :       0.00       0.00          0          0          0          0          0          0          0          0
  mostinf          :       0.00       0.00          0          0          0          0          0          0          0          0
  multaggr         :       0.00       0.00          0          0          0          0          0          0          0          0
  nodereopt        :       0.00       0.00          0          0          0          0          0          0          0          0
  pscost           :       0.00       0.00          0          0          0          0          0          0          0          0
  random           :       0.00       0.00          0          0          0          0          0          0          0          0
  relpscost        :      59.00       0.00      70749          0          0          0      10278          0       4798     136964
  vanillafullstrong:       0.00       0.00          0          0          0          0          0          0          0          0
Primal Heuristics  :   ExecTime  SetupTime      Calls      Found       Best
  LP solutions     :       0.03          -          -         14         14
  relax solutions  :       0.00          -          -          0          0
  pseudo solutions :       0.00          -          -          0          0
  strong branching :       0.02          -          -          0          0
  actconsdiving    :       0.00       0.00          0          0          0
  adaptivediving   :       9.57       0.00        263          1          1
  alns             :       1.06       0.00         18          1          1
  bound            :       0.00       0.00          0          0          0
  clique           :       0.00       0.00          1          0          0
  coefdiving       :       0.00       0.00          0          0          0
  completesol      :       0.00       0.00          0          0          0
  conflictdiving   :       9.33       0.00        385          0          0
  crossover        :       0.03       0.00          0          0          0
  dins             :       0.00       0.00          0          0          0
  distributiondivin:      25.80       0.00        386          0          0
  dps              :       0.00       0.00          0          0          0
  dualval          :       0.00       0.00          0          0          0
  farkasdiving     :       0.01       0.00          0          0          0
  feaspump         :       0.00       0.00          0          0          0
  fixandinfer      :       0.00       0.00          0          0          0
  fracdiving       :      15.93       0.00        386          1          1
  gins             :       0.04       0.00          0          0          0
  guideddiving     :      15.14       0.00        386          1          1
  indicator        :       0.05       0.00          0          0          0
  indicatordiving  :       0.00       0.00          0          0          0
  intdiving        :       0.00       0.00          0          0          0
  intshifting      :       0.09       0.00         14          0          0
  linesearchdiving :      13.38       0.00        386          0          0
  localbranching   :       0.00       0.00          0          0          0
  locks            :       0.00       0.00          1          0          0
  lpface           :       0.09       0.00          0          0          0
  mpec             :       2.76       0.00          1          0          0
  multistart       :       0.00       0.00          0          0          0
  mutation         :       0.00       0.00          0          0          0
  nlpdiving        :       7.02       0.00          7          1          1
  objpscostdiving  :      23.86       0.00         70          3          0
  octane           :       0.00       0.00          0          0          0
  ofins            :       0.11       0.00          0          0          0
  oneopt           :       0.05       0.00         33          0          0
  padm             :       0.00       0.00          0          0          0
  proximity        :       0.00       0.00          0          0          0
  pscostdiving     :      14.84       0.00        385          1          1
  randrounding     :       0.98       0.00       9558          0          0
  rens             :       0.00       0.00          0          0          0
  reoptsols        :       0.00       0.00          0          0          0
  repair           :       0.00       0.00          0          0          0
  rins             :       5.34       0.00         18          1          1
  rootsoldiving    :      28.02       0.00         73         11          2
  rounding         :       0.56       0.00       3958          0          0
  shiftandpropagate:       0.00       0.00          0          0          0
  shifting         :      28.02       0.00      12337          9          9
  simplerounding   :       0.14       0.00          0          0          0
  subnlp           :      73.15       0.00          0          0          0
  trivial          :       0.00       0.00          2          2          2
  trivialnegation  :       0.00       0.00          0          0          0
  trustregion      :       0.00       0.00          0          0          0
  trysol           :       0.08       0.00          0          0          0
  twoopt           :       0.00       0.00          0          0          0
  undercover       :       0.13       0.00          1          0          0
  vbounds          :       0.00       0.00          0          0          0
  veclendiving     :       8.34       0.00        386          0          0
  zeroobj          :       0.00       0.00          0          0          0
  zirounding       :       0.43       0.00       1000          0          0
  other solutions  :          -          -          -          0          -
Diving (single)    :      Calls      Nodes   LP Iters Backtracks  Conflicts   MinDepth   MaxDepth   AvgDepth  RoundSols  NLeafSols  MinSolDpt  MaxSolDpt  AvgSolDpt
  actconsdiving    :          0          -          -          -          -          -          -          -          -          -          -          -          -
  coefdiving       :          0          -          -          -          -          -          -          -          -          -          -          -          -
  conflictdiving   :        385       7529      70663        401       6310         24         42       33.2          0          -          -          -          -
  distributiondivin:        386       4922     165596        600       4602         21         36       26.4          0          -          -          -          -
  farkasdiving     :          0          -          -          -          -          -          -          -          -          -          -          -          -
  fracdiving       :        386      34403     135095        368       2719         28        244      103.3          0          1         73         73       73.0
  guideddiving     :        386      33442     130628        270       2092         28        252      100.8          0          1         64         64       64.0
  indicatordiving  :          0          -          -          -          -          -          -          -          -          -          -          -          -
  linesearchdiving :        386       8987     115983        510       7388         22         57       37.1          0          -          -          -          -
  pscostdiving     :        385       6640     135498        399       6487         23         50       31.4          0          1         50         50       50.0
  veclendiving     :        386       7110      58291        389       7441         25         46       32.7          0          -          -          -          -
Diving (adaptive)  :      Calls      Nodes   LP Iters Backtracks  Conflicts   MinDepth   MaxDepth   AvgDepth  RoundSols  NLeafSols  MinSolDpt  MaxSolDpt  AvgSolDpt
  actconsdiving    :         29        415      12970         47        326         22         35       27.3          0          -          -          -          -
  coefdiving       :         71       1350      12188         72       1367         29         40       33.0          0          -          -          -          -
  conflictdiving   :          0          -          -          -          -          -          -          -          -          -          -          -          -
  distributiondivin:          0          -          -          -          -          -          -          -          -          -          -          -          -
  farkasdiving     :          0          -          -          -          -          -          -          -          -          -          -          -          -
  fracdiving       :         18       1580       7885         15        122         41        253      101.1          0          -          -          -          -
  guideddiving     :         20       1588       8340         18        136         32        173       92.8          0          -          -          -          -
  indicatordiving  :          0          -          -          -          -          -          -          -          -          -          -          -          -
  linesearchdiving :         34        849      12908         46        666         28         59       38.2          0          1         43         43       43.0
  pscostdiving     :         39        667      14339         41        618         23         39       30.9          0          -          -          -          -
  veclendiving     :         52        956       6593         54        945         22         45       32.5          0          -          -          -          -
Neighborhoods      :      Calls  SetupTime  SolveTime SolveNodes       Sols       Best       Exp3  EpsGreedy        UCB TgtFixRate  Opt  Inf Node Stal  Sol  Usr Othr Actv
  rens             :          2       0.07       0.01          1          0          0    0.00000   -1.00000    0.54712      0.550    0    2    0    0    0    0    0    1
  rins             :          2       0.03       0.00          1          0          0    0.00000   -1.00000    0.29803      0.700    0    1    0    0    0    0    1    1
  mutation         :          4       0.11       0.22         73          1          1    0.00000   -1.00000    0.54417      0.522    1    2    0    1    0    0    0    1
  localbranching   :          2       0.07       0.03          3          0          0    0.00000   -1.00000    0.54429      0.550    0    2    0    0    0    0    0    1
  crossover        :          2       0.07       0.01          1          0          0    0.00000   -1.00000    0.54712      0.550    0    2    0    0    0    0    0    1
  proximity        :          2       0.08       0.02          5          0          0    0.00000   -1.00000    0.54146      0.550    0    2    0    0    0    0    0    1
  zeroobjective    :          2       0.08       0.03          3          0          0    0.00000   -1.00000    0.54429      0.550    0    2    0    0    0    0    0    1
  dins             :          2       0.03       0.00          0          0          0    0.00000   -1.00000    0.29853      0.700    0    1    0    0    0    0    1    1
  trustregion      :          0       0.00       0.00          0          0          0    0.00000   -1.00000    1.00000      0.900    0    0    0    0    0    0    0    0
Expressions        :   #IntEval  IntEvalTi   #RevProp  RevPropTi    DomReds    Cutoffs  #Estimate  EstimTime  Branching  #Simplify SimplifyTi Simplified
  pow              :          0       0.00          0       0.00          0          0          0       0.00          0          0       0.00          0
  prod             :       3540       0.01          0       0.00          0          0          0       0.00          0       2655       0.00          0
  sum              :          8       0.00          2       0.00          0          0          0       0.00          0          3       0.00          2
  var              :       3327       0.00          0       0.00          0          0          0       0.00          0       6378       0.01          0
  varidx           :          0       0.00          0       0.00          0          0          0       0.00          0          0       0.00          0
LP                 :       Time      Calls Iterations  Iter/call   Iter/sec  Time-0-It Calls-0-It    ItLimit
  primal LP        :     152.64      13366          0       0.00       0.00     152.59      13366
  dual LP          :    2529.62     162706   16181240     115.32    6396.71       8.07      22388
  lex dual LP      :       0.00          0          0       0.00          -
  barrier LP       :       0.00          0          0       0.00          -       0.00          0
  resolve instable :       0.00          0          0       0.00          -
  diving/probing LP:     130.29      10494    1213821     115.67    9316.30
  strong branching :      36.35       4974     336027      67.56    9244.21          -          -         21
    (at root node) :          -         23      18009     783.00          -
  conflict analysis:      10.43       6429      63818       9.93    6118.70
NLP relaxation     :
  solve time       :       6.30 (10 calls)
  convexity        :  nonconvex (1 linear rows, 0 convex ineq., 0 nonconvex ineq., 885 nonlinear eq. or two-sided ineq.)
NLP Solvers        :  #Problems  ProblemTi    #Solves  SolveTime      #Iter  Time/Iter      #Okay #TimeLimit #IterLimit #LObjLimit #Interrupt  #NumError #EvalError  #OutOfMem #LicenseEr #OtherTerm   #GlobOpt    #LocOpt  #Feasible #LocInfeas #GlobInfea #Unbounded   #Unknown
  ipopt            :          2       4.53         14       9.07        558       0.02         14          0          0          0          0          0          0          0          0          0          0          5          0          3          0          0          6
B&B Tree           :
  number of runs   :          1
  nodes            :     127338 (68482 internal, 58856 leaves)
  feasible leaves  :         14
  infeas. leaves   :        335
  objective leaves :      58506
  nodes (total)    :     127338 (68482 internal, 58856 leaves)
  nodes left       :       9578
  max depth        :         38
  max depth (total):         38
  backtracks       :      33366 (26.2%)
  early backtracks :          0 (0.0%)
  nodes exc. ref.  :          0 (0.0%)
  delayed cutoffs  :          1
  repropagations   :         77 (774 domain reductions, 0 cutoffs)
  avg switch length:       4.24
  switching time   :     177.54
Estim. Tree Size   :    1068419
Estimation Tree    : 136965 nodes (127387 visited, 68482 internal, 58905 leaves, 9578 open), weight: 0.1126 completed 0.3403
Estimations        :      estim      value      trend resolution     smooth
  wbe              :    1046167          -          -          -          -
  tree-profile     :         -1          -          -          -          -
  gap              :     616474    0.90666    0.00002         64     660750
  tree-weight      :    1068420    0.11261    0.00012         64    1086520
  leaf-frequency   :     458059    0.46241    0.00001         64     462436
  ssg              :     698718    0.52784   -0.00012         64     704181
  open-nodes       :     254774 9578.00000    0.63042         64     254575
Root Node          :
  First LP value   : -1.00000000000000e+00
  First LP Iters   :        638 (21266.67 Iter/sec)
  First LP Time    :       0.03
  Final Dual Bound : -8.64289661849904e-01
  Final Root Iters :      11675
  Root LP Estimate : -5.02161046546075e-01
Solution           :
  Solutions found  :         46 (34 improvements)
  First Solution   : +1.00000000000000e+05   (in run 1, after 0 nodes, 0.02 seconds, depth 0, found by <trivial>)
  Gap First Sol.   :   infinite
  Gap Last Sol.    :      17.07 %
  Primal Bound     : -6.02259887005650e-01   (in run 1, after 48377 nodes, 1353.57 seconds, depth 23, found by <relaxation>)
  Dual Bound       : -6.64265536723164e-01
  Gap              :      10.30 %
Integrals          :      Total       Avg%
  primal-dual      :   52296.97      14.53
  primal-ref       :          -          - (not evaluated)
  dual-ref         :          -          - (not evaluated)
